c ren 1 -> 1
c ren 2 -> 2
c ren 3 -> 3
c ren 4 -> 4
c ren 5 -> 5
c ren 6 -> 6
c ren 7 -> 7
c ren 8 -> 8
c ren 9 -> 9
c ren 10 -> 10
c ren 11 -> 11
c ren 12 -> 12
c ren 13 -> 13
c ren 14 -> 14
c ren 15 -> 15
c ren 16 -> 16
c ren 17 -> 17
c ren 18 -> 18
c ren 19 -> 19
c ren 20 -> 20
c ren 21 -> 21
c ren 22 -> 22
c ren 23 -> 23
c ren 24 -> 24
c ren 25 -> 25
c ren 26 -> 26
c ren 27 -> 27
c ren 28 -> 28
c ren 29 -> 29
c ren 30 -> 30
c ren 31 -> 31
c ren 32 -> 32
c ren 33 -> 33
c ren 34 -> 34
c ren 35 -> 35
c ren 36 -> 36
c ren 37 -> 37
c ren 38 -> 38
c ren 39 -> 39
c ren 40 -> 40
c ren 41 -> 41
c ren 42 -> 42
c ren 43 -> 43
c ren 44 -> 44
c ren 45 -> 45
c ren 46 -> 46
c ren 47 -> 47
c ren 48 -> 48
c ren 49 -> 49
c ren 50 -> 50
c ren 51 -> 51
c ren 52 -> 52
c ren 53 -> 53
c ren 54 -> 54
c ren 55 -> 55
c ren 56 -> 56
c ren 57 -> 57
c ren 58 -> 58
c ren 59 -> 59
c ren 60 -> 60
c ren 61 -> 61
c ren 62 -> 62
c ren 63 -> 63
c ren 64 -> 64
c ren 65 -> 65
c ren 66 -> 66
c ren 67 -> 67
c ren 68 -> 68
c ren 69 -> 69
c ren 70 -> 70
c ren 71 -> 71
c ren 72 -> 72
c ren 73 -> 73
c ren 74 -> 74
c ren 75 -> 75
c ren 76 -> 76
c ren 77 -> 77
c ren 78 -> 78
c ren 79 -> 79
c ren 80 -> 80
c ren 81 -> 81
c ren 82 -> 82
c ren 83 -> 83
c ren 84 -> 84
c ren 85 -> 85
c ren 86 -> 86
c ren 87 -> 87
c ren 88 -> 88
c ren 89 -> 89
c ren 90 -> 90
c ren 91 -> 91
c ren 92 -> 92
c ren 93 -> 93
c ren 94 -> 94
c ren 95 -> 95
c ren 96 -> 96
c ren 97 -> 97
c ren 98 -> 98
c ren 100 -> 99
c ren 103 -> 100
c ren 107 -> 101
c ren 111 -> 102
c ren 115 -> 103
c ren 119 -> 104
c ren 137 -> 105
c ren 139 -> 106
c ren 143 -> 107
c ren 147 -> 108
c ren 151 -> 109
c ren 155 -> 110
c ren 159 -> 111
c ren 175 -> 112
c ren 179 -> 113
c ren 183 -> 114
c ren 187 -> 115
c ren 191 -> 116
c ren 195 -> 117
c ren 199 -> 118
c ren 203 -> 119
c ren 209 -> 120
c ren 213 -> 121
c ren 217 -> 122
c ren 223 -> 123
c ren 227 -> 124
c ren 231 -> 125
c ren 237 -> 126
c ren 241 -> 127
c ren 245 -> 128
c ren 251 -> 129
c ren 255 -> 130
c ren 261 -> 131
c ren 265 -> 132
c ren 268 -> 133
c ren 277 -> 134
c ren 278 -> 135
c ren 279 -> 136
c ren 285 -> 137
c ren 289 -> 138
c ren 295 -> 139
c ren 298 -> 140
c ren 301 -> 141
c ren 305 -> 142
c ren 308 -> 143
c ren 311 -> 144
c ren 315 -> 145
c ren 321 -> 146
c ren 325 -> 147
c ren 329 -> 148
c ren 332 -> 149
c ren 335 -> 150
c ren 338 -> 151
c ren 341 -> 152
c ren 345 -> 153
c ren 351 -> 154
c ren 355 -> 155
c ren 358 -> 156
c ren 367 -> 157
c ren 369 -> 158
c ren 373 -> 159
c ren 376 -> 160
c ren 379 -> 161
c ren 382 -> 162
c ren 385 -> 163
c ren 389 -> 164
c ren 395 -> 165
c ren 399 -> 166
c ren 402 -> 167
c ren 408 -> 168
c ren 412 -> 169
c ren 417 -> 170
c ren 423 -> 171
c ren 426 -> 172
c ren 432 -> 173
c ren 436 -> 174
c ren 442 -> 175
c ren 446 -> 176
c ren 450 -> 177
c ren 461 -> 178
c ren 465 -> 179
c ren 469 -> 180
c ren 475 -> 181
p cnf 181 763
a 1 2 3 4 5 6 7 8 9 10 11 12 13 14 15 16 17 18 19 20 21 22 23 24 25 26 27 28 29 30 31 32 33 34 35 36 37 38 39 40 41 42 43 44 45 46 47 48 49 50 51 52 53 54 55 56 57 58 59 60 61 62 63 64 65 66 67 68 69 70 71 72 73 74 75 76 77 78 79 80 81 82 83 84 85 86 87 88 89 90 91 92 93 94 95 0
d 96 1 7 0
d 97 3 8 0
d 98 76 78 0
e 99 100 101 102 103 104 105 106 107 108 109 110 111 112 113 114 115 116 117 118 119 120 121 122 123 124 125 126 127 128 129 130 131 132 133 134 135 136 137 138 139 140 141 142 143 144 145 146 147 148 149 150 151 152 153 154 155 156 157 158 159 160 161 162 163 164 165 166 167 168 169 170 171 172 173 174 175 176 177 178 179 180 181 0
1 -10 -99 0
-1 -6 -10 99 0
6 54 140 0
-1 -6 10 -99 0
1 54 140 0
1 -54 -140 0
-1 -6 -54 140 0
2 -11 -100 0
-2 -5 -11 100 0
5 55 141 0
-2 -5 11 -100 0
2 55 141 0
2 -55 -141 0
-2 -5 -55 141 0
100 105 0
10 -14 -15 -16 17 18 -99 -100 -101 -102 -103 -104 -105 0
6 -54 -140 0
-9 10 11 -101 0
9 -10 -11 101 0
9 10 -11 -101 0
-9 -10 11 101 0
9 -10 11 -101 0
-9 -10 -11 -101 0
9 10 11 101 0
-9 10 -11 101 0
101 105 0
1 -13 -102 0
-1 -7 -13 102 0
-1 -7 13 -102 0
7 13 102 0
7 -13 -102 0
1 13 102 0
102 105 0
2 -16 -103 0
-2 -6 -16 103 0
6 59 143 0
-2 -6 16 -103 0
2 59 143 0
2 -59 -143 0
-2 -6 -59 143 0
103 105 0
3 -17 -104 0
-3 -5 -17 104 0
5 60 144 0
-3 -5 17 -104 0
3 60 144 0
3 -60 -144 0
-3 -5 -60 144 0
104 105 0
11 -14 -15 -16 17 18 -99 -100 -101 -102 -103 -104 -105 0
10 -14 -15 16 -17 18 -99 -100 -101 -102 -103 -104 -105 0
15 -16 17 105 0
15 16 -17 105 0
-15 -16 -17 105 0
99 105 0
10 -18 105 0
6 -59 -143 0
-10 -11 -14 15 -16 -17 -18 -99 -101 -102 -103 -104 -105 0
11 -14 -15 16 -17 18 -99 -100 -101 -102 -104 -105 0
11 -18 105 0
-10 -11 14 -15 -16 17 -18 -99 -100 -101 -102 -103 -104 -105 0
10 14 15 -16 -17 18 -99 -100 -101 -102 -103 -104 -105 0
5 -55 -141 0
-14 15 18 105 0
5 -60 -144 0
14 15 -18 105 0
-10 -11 18 105 0
14 -15 18 105 0
-14 -15 -18 105 0
-12 13 14 -106 0
12 -13 -14 106 0
12 13 -14 -106 0
-12 -13 14 106 0
12 -13 14 -106 0
-12 -13 -14 -106 0
12 13 14 106 0
-12 13 -14 106 0
106 112 0
-16 -17 -22 23 -24 25 -28 105 -106 -107 -108 -109 -110 -111 -112 0
1 -20 -107 0
-1 -8 -20 107 0
8 63 149 0
-1 -8 20 -107 0
1 63 149 0
1 -63 -149 0
-1 -8 -63 149 0
107 112 0
-16 -17 22 -23 -24 25 -28 105 -106 -107 -108 -109 -110 -111 -112 0
2 -23 -108 0
-2 -7 -23 108 0
7 66 150 0
-2 -7 23 -108 0
2 66 150 0
2 -66 -150 0
-2 -7 -66 150 0
108 112 0
-16 -17 -22 -23 24 -25 -28 105 -106 -107 -108 -109 -110 -111 -112 0
3 -26 -109 0
-3 -6 -26 109 0
6 69 151 0
-3 -6 26 -109 0
3 69 151 0
3 -69 -151 0
-3 -6 -69 151 0
109 112 0
-16 -17 22 23 24 -25 -28 105 -106 -107 -108 -109 -110 -111 -112 0
4 -27 -110 0
-4 -5 -27 110 0
5 70 152 0
-4 -5 27 -110 0
4 70 152 0
4 -70 -152 0
-4 -5 -70 152 0
110 112 0
-15 -18 -22 23 -24 25 -28 105 -106 -107 -108 -109 -110 -111 -112 0
-25 26 27 -111 0
25 -26 -27 111 0
25 26 -27 -111 0
-25 -26 27 111 0
25 -26 27 -111 0
-25 -26 -27 -111 0
25 26 27 111 0
-25 26 -27 111 0
111 112 0
-15 -18 22 -23 -24 25 -28 105 -106 -107 -108 -109 -110 -111 -112 0
15 17 22 23 24 25 28 105 -106 -107 -108 -109 -110 -111 -112 0
-105 112 0
16 18 22 -23 -24 -25 28 105 -106 -107 -108 -109 -110 -111 -112 0
-15 -18 -22 -23 24 -25 -28 105 -106 -107 -108 -109 -110 -111 -112 0
15 17 -28 112 0
15 17 -22 23 -24 -25 28 105 -106 -107 -108 -109 -110 -111 -112 0
16 -28 112 0
15 16 22 -23 -24 -25 28 105 -106 -107 -108 -109 -110 -111 -112 0
15 17 -22 -23 24 25 28 105 -106 -107 -108 -109 -110 -111 -112 0
15 17 22 -23 -24 -25 28 105 -106 -107 -108 -109 -110 -111 -112 0
17 18 -22 -23 24 25 28 105 -106 -107 -108 -109 -110 -111 -112 0
-15 -18 22 23 24 -25 -28 105 -106 -107 -108 -109 -110 -111 -112 0
-15 -18 28 112 0
16 -22 -23 24 25 28 105 -106 -107 -108 -109 -110 -111 -112 0
16 18 -22 23 -24 -25 28 105 -106 -107 -108 -109 -110 -111 -112 0
24 25 -28 112 0
15 16 22 23 24 25 28 105 -106 -107 -108 -109 -110 -111 -112 0
16 18 22 23 24 25 28 105 -106 -107 -108 -109 -110 -111 -112 0
15 16 -22 23 -24 -25 28 105 -106 -107 -108 -109 -110 -111 -112 0
17 18 -22 23 -24 -25 28 105 -106 -107 -108 -109 -110 -111 -112 0
-16 -17 28 112 0
24 -25 28 112 0
-24 -25 -28 112 0
7 -66 -150 0
-22 23 24 112 0
-24 25 28 112 0
22 23 -24 112 0
17 18 22 -23 -24 -25 28 105 -106 -107 -108 -109 -110 -111 -112 0
17 18 22 23 24 25 28 105 -106 -107 -108 -109 -110 -111 -112 0
22 -23 24 112 0
5 -70 -152 0
8 -63 -149 0
-22 -23 -24 112 0
6 -69 -151 0
13 -29 -113 0
14 29 113 0
14 -29 -113 0
-13 -14 -29 113 0
13 29 113 0
17 18 -28 112 0
-13 -14 29 -113 0
113 134 0
-31 -32 -41 -48 112 -113 -114 -115 -116 -117 -118 -119 -120 -121 -122 -123 -124 -125 -126 -127 -128 -129 -130 -131 -132 -133 -134 0
-21 22 29 -114 0
21 -22 -29 114 0
21 22 -29 -114 0
-21 -22 29 114 0
21 -22 29 -114 0
-21 -22 -29 -114 0
21 22 29 114 0
-21 22 -29 114 0
114 134 0
-30 -40 -41 -48 112 -113 -114 -115 -116 -117 -118 -119 -120 -121 -122 -123 -124 -125 -126 -127 -128 -129 -130 -131 -132 -133 -134 0
-19 20 21 -115 0
19 -20 -21 115 0
19 20 -21 -115 0
-19 -20 21 115 0
19 -20 21 -115 0
-19 -20 -21 -115 0
19 20 21 115 0
-19 20 -21 115 0
115 134 0
2 -31 -116 0
-2 -8 -31 116 0
8 74 160 0
-2 -8 31 -116 0
2 74 160 0
2 -74 -160 0
-2 -8 -74 160 0
116 134 0
30 32 -41 48 112 -113 -114 -115 -116 -117 -118 -119 -120 -121 -122 -123 -124 -125 -126 -127 -128 -129 -130 -131 -132 -133 -134 0
3 -34 -117 0
-3 -7 -34 117 0
7 77 161 0
-3 -7 34 -117 0
3 77 161 0
3 -77 -161 0
-3 -7 -77 161 0
117 134 0
31 40 -41 48 112 -113 -114 -115 -116 -117 -118 -119 -120 -121 -122 -123 -124 -125 -126 -127 -128 -129 -130 -131 -132 -133 -134 0
4 -37 -118 0
-4 -6 -37 118 0
6 81 163 0
-4 -6 37 -118 0
4 81 163 0
4 -81 -163 0
-4 -6 -81 163 0
118 134 0
32 40 -41 48 112 -113 -114 -115 -116 -117 -118 -119 -120 -121 -122 -123 -124 -125 -126 -127 -128 -129 -130 -131 -132 -133 -134 0
-36 37 -119 0
-36 -37 119 0
36 -37 -119 0
36 37 119 0
119 134 0
-31 -32 41 -48 112 -113 -114 -115 -116 -117 -118 -119 -120 -121 -122 -123 -124 -125 -126 -127 -128 -129 -130 -131 -132 133 -134 0
25 26 -38 -120 0
-25 -28 -38 120 0
27 28 38 120 0
25 27 -38 -120 0
-26 -27 -38 120 0
27 28 -38 -120 0
25 26 38 120 0
26 28 38 120 0
-26 -27 38 -120 0
26 28 -38 -120 0
-25 -28 38 -120 0
25 27 38 120 0
120 134 0
-30 -40 41 -48 112 -113 -114 -115 -116 -117 -118 -119 -120 -121 -122 -123 -124 -125 -126 -127 -128 -129 -130 -131 -132 133 -134 0
-35 36 38 -121 0
35 -36 -38 121 0
35 36 -38 -121 0
-35 -36 38 121 0
35 -36 38 -121 0
-35 -36 -38 -121 0
35 36 38 121 0
-35 36 -38 121 0
121 134 0
-33 34 35 -122 0
33 -34 -35 122 0
33 34 -35 -122 0
-33 -34 35 122 0
33 -34 35 -122 0
-33 -34 -35 -122 0
33 34 35 122 0
-33 34 -35 122 0
122 134 0
30 32 41 48 112 -113 -114 -115 -116 -117 -118 -119 -120 -121 -122 -123 -124 -125 -126 -127 -128 -129 -130 -131 -132 133 -134 0
22 23 -39 -123 0
-22 -29 -39 123 0
24 29 39 123 0
22 24 -39 -123 0
-23 -24 -39 123 0
24 29 -39 -123 0
23 29 39 123 0
-23 -24 39 -123 0
23 29 -39 -123 0
-22 -29 39 -123 0
22 24 39 123 0
123 134 0
31 40 41 48 112 -113 -114 -115 -116 -117 -118 -119 -120 -121 -122 -123 -124 -125 -126 -127 -128 -129 -130 -131 -132 133 -134 0
-32 33 39 -124 0
32 -33 -39 124 0
32 33 -39 -124 0
-32 -33 39 124 0
32 -33 39 -124 0
-32 -33 -39 -124 0
32 33 39 124 0
-32 33 -39 124 0
124 134 0
32 40 41 48 112 -113 -114 -115 -116 -117 -118 -119 -120 -121 -122 -123 -124 -125 -126 -127 -128 -129 -130 -131 -132 133 -134 0
-30 31 32 -125 0
30 -31 -32 125 0
30 31 -32 -125 0
-30 -31 32 125 0
30 -31 32 -125 0
-30 -31 -32 -125 0
30 31 32 125 0
-30 31 -32 125 0
125 134 0
-112 134 0
21 40 126 0
21 -40 -126 0
-20 -21 -40 126 0
20 40 126 0
-20 -21 40 -126 0
20 -40 -126 0
126 134 0
3 -42 -127 0
-3 -8 -42 127 0
-3 -8 42 -127 0
8 42 127 0
8 -42 -127 0
3 42 127 0
127 134 0
4 -45 -128 0
-4 -7 -45 128 0
7 88 172 0
-4 -7 45 -128 0
4 88 172 0
4 -88 -172 0
-4 -7 -88 172 0
128 134 0
36 -46 -129 0
-36 -38 -46 129 0
38 46 129 0
38 -46 -129 0
-36 -38 46 -129 0
36 46 129 0
129 134 0
8 -74 -160 0
-44 45 46 -130 0
44 -45 -46 130 0
44 45 -46 -130 0
-44 -45 46 130 0
44 -45 46 -130 0
-44 -45 -46 -130 0
44 45 46 130 0
-44 45 -46 130 0
130 134 0
7 -77 -161 0
33 34 -47 -131 0
-33 -39 -47 131 0
35 39 47 131 0
33 35 -47 -131 0
-34 -35 -47 131 0
35 39 -47 -131 0
34 39 47 131 0
-34 -35 47 -131 0
34 39 -47 -131 0
-33 -39 47 -131 0
33 35 47 131 0
131 134 0
6 -81 -163 0
-43 44 47 -132 0
43 -44 -47 132 0
43 44 -47 -132 0
-43 -44 47 132 0
43 -44 47 -132 0
-43 -44 -47 -132 0
43 44 47 132 0
-43 44 -47 132 0
132 134 0
-42 43 133 0
42 -43 133 0
-42 -43 -133 0
42 43 -133 0
-41 133 134 0
30 31 -48 134 0
30 32 -48 134 0
32 40 -48 134 0
41 -133 134 0
-30 -40 48 134 0
-31 -32 48 134 0
7 -88 -172 0
31 40 -48 134 0
4 -135 0
8 -135 0
-4 -8 135 0
-50 -135 136 0
50 135 136 0
-50 135 -136 0
50 -135 -136 0
136 157 0
-57 -65 -72 -96 134 -136 -137 -138 -139 -140 -141 -142 -143 -144 -145 -146 -147 -148 -149 -150 -151 -152 -153 -154 -155 -156 -157 0
44 45 -51 -137 0
-44 -47 -51 137 0
46 47 51 137 0
44 46 -51 -137 0
-45 -46 -51 137 0
46 47 -51 -137 0
44 45 51 137 0
45 47 51 137 0
-45 -46 51 -137 0
45 47 -51 -137 0
-44 -47 51 -137 0
44 46 51 137 0
137 157 0
-49 50 51 -138 0
49 -50 -51 138 0
49 50 -51 -138 0
-49 -50 51 138 0
49 -50 51 -138 0
-49 -50 -51 -138 0
49 50 51 138 0
-49 50 -51 138 0
138 157 0
41 42 -52 -139 0
-41 -48 -52 139 0
43 48 52 139 0
41 43 -52 -139 0
-42 -43 -52 139 0
43 48 -52 -139 0
41 42 52 139 0
42 48 52 139 0
-42 -43 52 -139 0
42 48 -52 -139 0
-41 -48 52 -139 0
41 43 52 139 0
139 157 0
-1 -6 54 -140 0
6 10 99 0
6 -10 -99 0
1 10 99 0
140 157 0
57 -65 72 134 -136 -137 -138 -139 -140 -141 -142 -143 -144 -145 -146 -147 -148 -149 -150 -151 -152 -153 -154 -155 -156 -157 0
-2 -5 55 -141 0
5 11 100 0
5 -11 -100 0
2 11 100 0
141 157 0
-65 72 96 134 -136 -137 -138 -139 -140 -141 -142 -143 -144 -145 -146 -147 -148 -149 -150 -151 -152 -153 -154 -155 -156 -157 0
-53 54 55 -142 0
53 -54 -55 142 0
53 54 -55 -142 0
-53 -54 55 142 0
53 -54 55 -142 0
-53 -54 -55 -142 0
53 54 55 142 0
-53 54 -55 142 0
142 157 0
-57 65 -72 -96 134 -136 -137 -138 -139 -140 -141 -142 -143 -144 -145 -146 -147 -148 -149 -150 -151 -152 -153 -154 -155 156 -157 0
-2 -6 59 -143 0
6 16 103 0
6 -16 -103 0
2 16 103 0
143 157 0
-3 -5 60 -144 0
5 17 104 0
5 -17 -104 0
3 17 104 0
144 157 0
-58 59 60 -145 0
58 -59 -60 145 0
58 59 -60 -145 0
-58 -59 60 145 0
58 -59 60 -145 0
-58 -59 -60 -145 0
58 59 60 145 0
-58 59 -60 145 0
145 157 0
54 -61 -146 0
55 61 146 0
55 -61 -146 0
-54 -55 -61 146 0
54 61 146 0
-54 -55 61 -146 0
146 157 0
57 65 72 134 -136 -137 -138 -139 -140 -141 -142 -143 -144 -145 -146 -147 -148 -149 -150 -151 -152 -153 -154 -155 156 -157 0
-57 58 61 -147 0
57 -58 -61 147 0
57 58 -61 -147 0
-57 -58 61 147 0
57 -58 61 -147 0
-57 -58 -61 -147 0
57 58 61 147 0
-57 58 -61 147 0
147 157 0
65 72 96 134 -136 -137 -138 -139 -140 -141 -142 -143 -144 -145 -146 -147 -148 -149 -150 -151 -152 -153 -154 -155 156 -157 0
-56 57 96 -148 0
56 -57 -96 148 0
56 -57 96 -148 0
-56 57 -96 148 0
56 57 -96 -148 0
-56 -57 -96 -148 0
56 57 96 148 0
-56 -57 96 148 0
148 157 0
-134 157 0
-1 -8 63 -149 0
8 20 107 0
8 -20 -107 0
1 20 107 0
149 157 0
-2 -7 66 -150 0
7 23 108 0
7 -23 -108 0
2 23 108 0
150 157 0
-3 -6 69 -151 0
6 26 109 0
6 -26 -109 0
3 26 109 0
151 157 0
-4 -5 70 -152 0
5 27 110 0
5 -27 -110 0
4 27 110 0
152 157 0
-68 69 70 -153 0
68 -69 -70 153 0
68 69 -70 -153 0
-68 -69 70 153 0
68 -69 70 -153 0
-68 -69 -70 -153 0
68 69 70 153 0
-68 69 -70 153 0
153 157 0
58 59 -71 -154 0
-58 -61 -71 154 0
60 61 71 154 0
58 60 -71 -154 0
-59 -60 -71 154 0
60 61 -71 -154 0
59 61 71 154 0
-59 -60 71 -154 0
59 61 -71 -154 0
-58 -61 71 -154 0
58 60 71 154 0
154 157 0
-67 68 71 -155 0
67 -68 -71 155 0
67 68 -71 -155 0
-67 -68 71 155 0
67 -68 71 -155 0
-67 -68 -71 -155 0
67 68 71 155 0
-67 68 -71 155 0
155 157 0
-66 67 156 0
66 -67 156 0
-66 -67 -156 0
66 67 -156 0
-65 156 157 0
57 -72 157 0
-72 96 157 0
65 -156 157 0
-57 72 -96 157 0
-64 65 72 -158 0
64 -65 -72 158 0
64 65 -72 -158 0
-64 -65 72 158 0
64 -65 72 -158 0
-64 -65 -72 -158 0
64 65 72 158 0
-64 65 -72 158 0
158 178 0
-74 -75 -91 -93 -135 157 -158 -159 -160 -161 -162 -163 -164 -165 -166 -167 -168 -169 -170 -171 -172 -173 -174 -175 -176 -177 -178 0
-62 63 64 -159 0
62 -63 -64 159 0
62 63 -64 -159 0
-62 -63 64 159 0
62 -63 64 -159 0
-62 -63 -64 -159 0
62 63 64 159 0
-62 63 -64 159 0
159 178 0
-74 -75 -91 93 135 157 -158 -159 -160 -161 -162 -163 -164 -165 -166 -167 -168 -169 -170 -171 -172 -173 -174 -175 -176 -177 -178 0
-2 -8 74 -160 0
8 31 116 0
8 -31 -116 0
2 31 116 0
160 178 0
-73 -84 -91 -93 -135 157 -158 -159 -160 -161 -162 -163 -164 -165 -166 -167 -168 -169 -170 -171 -172 -173 -174 -175 -176 -177 -178 0
-3 -7 77 -161 0
7 34 117 0
7 -34 -117 0
3 34 117 0
161 178 0
-73 -84 -91 93 135 157 -158 -159 -160 -161 -162 -163 -164 -165 -166 -167 -168 -169 -170 -171 -172 -173 -174 -175 -176 -177 -178 0
-76 -77 162 0
76 77 162 0
-76 77 -162 0
76 -77 -162 0
162 178 0
73 74 91 -93 -135 157 -158 -159 -160 -161 -162 -163 -164 -165 -166 -167 -168 -169 -170 -171 -172 -173 -174 -175 -176 -177 -178 0
-4 -6 81 -163 0
6 37 118 0
6 -37 -118 0
4 37 118 0
163 178 0
73 74 91 93 135 157 -158 -159 -160 -161 -162 -163 -164 -165 -166 -167 -168 -169 -170 -171 -172 -173 -174 -175 -176 -177 -178 0
-80 81 -164 0
-80 -81 164 0
80 -81 -164 0
80 81 164 0
164 178 0
73 75 91 -93 -135 157 -158 -159 -160 -161 -162 -163 -164 -165 -166 -167 -168 -169 -170 -171 -172 -173 -174 -175 -176 -177 -178 0
68 69 -82 -165 0
-68 -71 -82 165 0
70 71 82 165 0
68 70 -82 -165 0
-69 -70 -82 165 0
70 71 -82 -165 0
68 69 82 165 0
69 71 82 165 0
-69 -70 82 -165 0
69 71 -82 -165 0
-68 -71 82 -165 0
68 70 82 165 0
165 178 0
73 75 91 93 135 157 -158 -159 -160 -161 -162 -163 -164 -165 -166 -167 -168 -169 -170 -171 -172 -173 -174 -175 -176 -177 -178 0
-79 80 82 -166 0
79 -80 -82 166 0
79 80 -82 -166 0
-79 -80 82 166 0
79 -80 82 -166 0
-79 -80 -82 -166 0
79 80 82 166 0
-79 80 -82 166 0
166 178 0
74 84 91 -93 -135 157 -158 -159 -160 -161 -162 -163 -164 -165 -166 -167 -168 -169 -170 -171 -172 -173 -174 -175 -176 -177 -178 0
-78 -79 167 0
78 79 167 0
-78 79 -167 0
78 -79 -167 0
167 178 0
74 84 91 93 135 157 -158 -159 -160 -161 -162 -163 -164 -165 -166 -167 -168 -169 -170 -171 -172 -173 -174 -175 -176 -177 -178 0
65 66 -83 -168 0
-65 -72 -83 168 0
67 72 83 168 0
65 67 -83 -168 0
-66 -67 -83 168 0
67 72 -83 -168 0
65 66 83 168 0
66 72 83 168 0
-66 -67 83 -168 0
66 72 -83 -168 0
-65 -72 83 -168 0
65 67 83 168 0
168 178 0
75 84 91 -93 -135 157 -158 -159 -160 -161 -162 -163 -164 -165 -166 -167 -168 -169 -170 -171 -172 -173 -174 -175 -176 -177 -178 0
-75 83 98 -169 0
75 -83 -98 169 0
75 -83 98 -169 0
-75 83 -98 169 0
75 83 -98 -169 0
-75 -83 -98 -169 0
75 83 98 169 0
-75 -83 98 169 0
169 178 0
75 84 91 93 135 157 -158 -159 -160 -161 -162 -163 -164 -165 -166 -167 -168 -169 -170 -171 -172 -173 -174 -175 -176 -177 -178 0
73 -74 170 0
-73 74 75 170 0
73 74 75 -170 0
73 -75 170 0
-73 -75 -170 0
-73 -74 -170 0
170 178 0
-157 178 0
11 14 15 16 17 18 -99 -100 -101 -102 -103 -104 -105 0
64 84 171 0
64 -84 -171 0
-63 -64 -84 171 0
63 84 171 0
-63 -64 84 -171 0
63 -84 -171 0
171 178 0
-4 -7 88 -172 0
7 45 128 0
7 -45 -128 0
4 45 128 0
172 178 0
80 -89 -173 0
-80 -82 -89 173 0
82 89 173 0
10 14 15 16 17 18 -99 -100 -101 -102 -103 -104 -105 0
82 -89 -173 0
-15 16 17 105 0
-80 -82 89 -173 0
80 89 173 0
173 178 0
-87 88 89 -174 0
87 -88 -89 174 0
87 88 -89 -174 0
-87 -88 89 174 0
87 -88 89 -174 0
-87 -88 -89 -174 0
87 88 89 174 0
-87 88 -89 174 0
174 178 0
77 83 -90 -175 0
-83 -90 -98 175 0
79 90 98 175 0
79 83 -90 -175 0
-77 -79 -90 175 0
79 -90 98 -175 0
77 83 90 175 0
77 90 98 175 0
-77 -79 90 -175 0
77 -90 98 -175 0
-83 90 -98 -175 0
79 83 90 175 0
175 178 0
-86 87 90 -176 0
86 -87 -90 176 0
86 87 -90 -176 0
-86 -87 90 176 0
86 -87 90 -176 0
-86 -87 -90 -176 0
86 87 90 176 0
-86 87 -90 176 0
176 178 0
-85 86 97 -177 0
85 -86 -97 177 0
85 -86 97 -177 0
-85 86 -97 177 0
85 86 -97 -177 0
-85 -86 -97 -177 0
85 86 97 177 0
-85 -86 97 177 0
177 178 0
-87 -90 -94 179 0
89 90 94 179 0
-88 -89 -94 179 0
87 88 94 179 0
88 90 94 179 0
87 89 94 179 0
-49 -52 94 95 178 -179 -180 -181 0
92 -93 -94 180 0
-92 -93 94 180 0
92 93 94 180 0
-92 93 -94 180 0
50 52 -93 -94 178 -179 -180 -181 0
-85 -91 -95 181 0
91 95 97 181 0
-86 -95 -97 181 0
85 86 95 181 0
86 91 95 181 0
85 95 97 181 0
51 52 -93 -94 178 -179 -180 -181 0
-9 53 178 -179 -180 -181 0
9 -53 178 -179 -180 -181 0
-12 56 178 -179 -180 -181 0
12 -56 178 -179 -180 -181 0
-30 -40 73 178 -179 -180 -181 0
-30 73 84 178 -179 -180 -181 0
30 -40 -73 178 -179 -180 -181 0
40 -84 178 -179 -180 -181 0
19 -62 178 -179 -180 -181 0
-19 62 178 -179 -180 -181 0
-41 -48 85 -91 178 -179 -180 -181 0
-40 84 178 -179 -180 -181 0
-41 48 85 91 178 -179 -180 -181 0
41 48 85 -91 178 -179 -180 -181 0
41 -48 -85 -91 178 -179 -180 -181 0
-41 48 -85 -91 178 -179 -180 -181 0
30 -73 84 178 -179 -180 -181 0
-49 -52 92 -95 178 -179 -180 -181 0
41 -48 85 91 178 -179 -180 -181 0
-49 52 92 95 178 -179 -180 -181 0
49 52 92 -95 178 -179 -180 -181 0
49 -52 -92 -95 178 -179 -180 -181 0
-49 52 -92 -95 178 -179 -180 -181 0
-41 -48 -85 91 178 -179 -180 -181 0
41 48 -85 91 178 -179 -180 -181 0
51 52 -92 -95 178 -179 -180 -181 0
49 52 -92 95 178 -179 -180 -181 0
-50 -51 94 95 178 -179 -180 -181 0
49 51 -92 -95 178 -179 -180 -181 0
49 50 -93 -94 178 -179 -180 -181 0
-49 -52 92 93 178 -179 -180 -181 0
49 -52 92 95 178 -179 -180 -181 0
49 50 -92 -95 178 -179 -180 -181 0
-49 -52 93 95 178 -179 -180 -181 0
49 51 -93 -94 178 -179 -180 -181 0
-49 -52 -92 95 178 -179 -180 -181 0
50 52 -92 -95 178 -179 -180 -181 0
